# Solution for model count
# Objective value = 10
z#1 1
z#2 0
z#3 0
z#4 0
z#5 0
z#6 0
z#7 1
z#8 0
z#9 1
z#10 1
z#11 0
z#12 0
z#13 1
z#14 0
z#15 1
z#16 0
z#17 0
z#18 1
z#19 1
z#20 0
z#21 0
z#22 0
z#23 1
z#24 1
x#24 322
x#23 2187
x#22 0
x#21 0
x#20 0
x#19 227
x#18 2296
x#17 0
x#16 0
x#15 1518
x#14 0
x#13 45
x#12 0
x#11 0
x#10 1765
x#9 69
x#8 0
x#7 933
x#6 0
x#5 0
x#4 0
x#3 0
x#2 0
x#1 638
